127 132844
1 7 105 15 106 6 21 22 108 4 19 8 72 23 24 9 11 3 100 58 64 91 61 90 116 62 60 59 67 73 74 77 79 80 32 29 28 122 33 25 26 38 27 31 30 41 36 37 2 51 57 54 44 45 103 93 127 107 111 112 94 46 48 118 49 53 47 56 121 14 12 76 75 63 119 88 87 86 85 109 96 69 70 68 71 110 104 125 89 92 99 65 113 66 55 124 52 5 50 13 115 10 120 114 20 17 18 78 117 84 81 126 82 83 102 101 98 97 123 95 42 39 34 43 40 35 16 
